(set-info :smt-lib-version 2.6)
(set-logic QF_S)
(set-info :source |
Generated by: Murphy Berzish, Mitja Kulczynski, Federico Mora, Florin Manea, Joel Day, Dirk Nowotka, Vijay Ganesh, Zhengyang Lu
Generated on: 2020-10-01
Description: Translated from a collection of real-world regex queries, AutomataArk, collected by Loris D’Antoni and Fang Wang: https://github.com/lorisdanto/automatark
Application: Evaluate solvers on real-world regex queries
Target solver: Z3str3RE, CVC4, OSTRICH, Z3seq, Z3str3, Z3-Trau
Publications: Berzish, M., Kulczynski, M., Mora, F., Manea, F., Day, J. D., Nowotka, D., & Ganesh, V. (2021, July). An SMT solver for regular expressions and linear arithmetic over string length. In CAV 2021.
|)
(set-info :license "https://creativecommons.org/licenses/by/4.0/")
(set-info :category "industrial")
(set-info :status unsat)

(declare-const X String)
(assert (not (str.in_re X (re.++ (str.to_re "pjpoptwql/rlnj") (re.+ (re.range "0" "9")) (str.to_re "waiting") (re.+ (re.range "0" "9")) (str.to_re "ocllceclbhs/gth") (re.+ (re.union (re.range "0" "9") (re.range "A" "Z") (re.range "a" "z") (str.to_re "_"))) (str.to_re "gdvsotuqwsg/dxt.hdUser-Agent:\u{a}")))))
(assert (str.in_re X (re.++ (re.opt (re.union (str.to_re "V-") (str.to_re "I-"))) ((_ re.loop 4 4) (re.range "0" "9")) (str.to_re "\u{a}"))))
(assert (str.in_re X (re.union (re.++ (re.* (re.union (str.to_re "*") (str.to_re "|") (re.comp (re.union (re.range "0" "9") (re.range "A" "Z") (re.range "a" "z") (str.to_re "_"))) (re.range "0" "9") (re.range "A" "Z") (re.range "a" "z") (str.to_re "_"))) (str.to_re "<") (re.* (re.union (str.to_re "[") (str.to_re "*") (str.to_re "|") (re.comp (re.union (re.range "0" "9") (re.range "A" "Z") (re.range "a" "z") (str.to_re "_"))) (re.range "0" "9") (re.range "A" "Z") (re.range "a" "z") (str.to_re "_")))) (re.++ (str.to_re "/") (re.union (str.to_re "*") (str.to_re "|") (re.comp (re.union (re.range "0" "9") (re.range "A" "Z") (re.range "a" "z") (str.to_re "_"))) (re.range "0" "9") (re.range "A" "Z") (re.range "a" "z") (str.to_re "_")) (str.to_re "]>") (re.* (re.union (str.to_re "*") (str.to_re "|") (re.comp (re.union (re.range "0" "9") (re.range "A" "Z") (re.range "a" "z") (str.to_re "_"))) (re.range "0" "9") (re.range "A" "Z") (re.range "a" "z") (str.to_re "_"))) (str.to_re "\u{a}")))))
(assert (str.in_re X (re.++ (str.to_re "//0") ((_ re.loop 0 13) (re.range "a" "z")) ((_ re.loop 0 12) (re.range "0" "9")) (re.range "a" "z") ((_ re.loop 1 11) (re.union (re.range "a" "z") (re.range "0" "9"))) (str.to_re "/U\u{a}"))))
(assert (str.in_re X (re.++ ((_ re.loop 1 1) (re.union (re.range "a" "z") (re.range "A" "Z"))) (str.to_re "-") ((_ re.loop 7 7) (re.range "0" "9")) (str.to_re "-") ((_ re.loop 1 1) (re.union (re.range "a" "z") (re.range "A" "Z"))) (str.to_re "\u{a}"))))
(check-sat)

(exit)
